### Generated by AiiDA-ORCA Plugin ###
! PBE SV(P) Opt 
%pal 
	nproc 1
end
%scf 
	convergence tight
end

* xyzfile 0 1 aiida.coords.xyz
